197
0 24 113 82 155 1 153 131 55 176 
192 87 43 27 140 60 91 179 104 66 
20 138 178 195 68 59 83 51 34 157 
48 124 160 15 110 52 72 142 122 98 
53 127 65 42 111 33 45 180 136 143 
151 5 173 18 125 159 9 26 189 28 
119 188 4 58 163 7 133 17 156 13 
194 134 106 64 115 182 167 162 75 44 
126 148 6 21 191 112 150 161 120 29 
46 41 89 90 70 85 109 35 78 23 
32 12 79 99 102 30 105 76 152 139 
118 185 108 170 168 158 84 69 25 196 
101 187 88 181 186 50 130 8 36 174 
14 71 22 121 171 107 81 77 40 97 
95 117 93 145 38 63 184 74 86 2 
149 16 164 154 57 169 54 123 144 114 
94 165 103 193 39 141 147 166 172 116 
67 11 137 132 10 128 129 19 61 177 
146 135 190 73 47 3 49 80 96 175 
56 37 92 100 31 183 62 
